%chk=es-1-sp.chk
%nprocshared=16
%mem=88GB
#p scrf=(smd,solvent=water) m062x/genecp

Title Card Required

0 2 1 3 -1 2
 N(Fragment=1)    0    1.59535000   -5.29160000   -1.93310600
 H(Fragment=1)    0    0.91532400   -6.00845400   -2.18340500
 C(Fragment=1)    0    1.09346300   -4.52512600   -0.79680700
 H(Fragment=1)    0    1.71179300   -3.62996000   -0.67701500
 C(Fragment=1)    0   -0.40969600   -4.10764300   -0.85088600
 H(Fragment=1)    0   -0.67212900   -3.56304800    0.06472300
 H(Fragment=1)    0   -1.00093800   -5.03198800   -0.85815900
 C(Fragment=1)    0   -0.77308600   -3.26541200   -2.03822000
 N(Fragment=1)    0   -1.33551200   -1.99785600   -1.94794200
 C(Fragment=1)    0   -1.48487500   -1.55612500   -3.19084000
 H(Fragment=1)    0   -1.89709800   -0.60002600   -3.48049700
 N(Fragment=1)    0   -1.05401900   -2.46921000   -4.06813600
 H(Fragment=1)    0   -1.06278200   -2.36611700   -5.07694100
 C(Fragment=1)    0   -0.60674200   -3.56084000   -3.36730700
 H(Fragment=1)    0   -0.22554900   -4.43532800   -3.86963800
 C(Fragment=1)    0    1.25079200   -5.39434200    0.44327300
 O(Fragment=1)    0    1.03695000   -6.58920200    0.40649500
 N(Fragment=1)    0   -4.17573300   -2.71266300    3.81817800
 H(Fragment=1)    0   -4.63312500   -1.85957800    3.48904400
 C(Fragment=1)    0   -2.74699500   -2.56663800    3.56723700
 H(Fragment=1)    0   -2.25207000   -3.52310500    3.78647100
 C(Fragment=1)    0   -2.34614700   -2.17703500    2.13483600
 H(Fragment=1)    0   -2.70051800   -2.96766500    1.46403200
 H(Fragment=1)    0   -1.25260900   -2.15303300    2.06631400
 S(Fragment=1)    0   -3.05147100   -0.54048000    1.65471100
 C(Fragment=1)    0   -2.11405500   -1.55526200    4.49973600
 O(Fragment=1)    0   -2.72355300   -0.92422300    5.33840500
 N(Fragment=2)    0   -0.60561900    5.34761100    2.26357600
 H(Fragment=2)    0    0.36898200    5.19457500    2.51124400
 C(Fragment=2)    0   -0.68894100    5.84574400    0.88753000
 H(Fragment=2)    0   -0.86604000    6.92823500    0.85071000
 C(Fragment=2)    0    0.59044000    5.54884900    0.09467400
 H(Fragment=2)    0    0.40446800    5.75702400   -0.96271400
 H(Fragment=2)    0    0.81514700    4.47579500    0.17763700
 C(Fragment=2)    0    1.78364000    6.37538800    0.56191800
 H(Fragment=2)    0    1.99422900    6.22723600    1.62533500
 H(Fragment=2)    0    1.55829700    7.44284100    0.43157100
 C(Fragment=2)    0    3.06844300    6.08251500   -0.21615600
 O(Fragment=2)    0    2.94875800    5.72748400   -1.43648600
 O(Fragment=2)    0    4.15856400    6.24122100    0.37366100
 C(Fragment=2)    0   -1.86451100    5.22749400    0.13131300
 O(Fragment=2)    0   -2.25000300    5.69638900   -0.94835800
 N(Fragment=1)    0   -2.41831900    4.14015600    0.68487900
 H(Fragment=1)    0   -2.02866300    3.84543100    1.57769400
 C(Fragment=1)    0   -3.56512700    3.47952600    0.10629200
 H(Fragment=1)    0   -4.25949300    4.26354600   -0.22648700
 C(Fragment=1)    0   -3.30209400    2.56831600   -1.13566900
 H(Fragment=1)    0   -3.57181800    3.14275800   -2.02472500
 H(Fragment=1)    0   -3.99033400    1.71682200   -1.08337300
 C(Fragment=1)    0   -1.89699700    2.09021000   -1.30031200
 N(Fragment=1)    0   -1.47329200    0.78846300   -1.09664400
 C(Fragment=1)    0   -0.16787200    0.76953100   -1.34427900
 H(Fragment=1)    0    0.47642500   -0.09438700   -1.27745900
 N(Fragment=1)    0    0.26008800    1.98657000   -1.70044500
 H(Fragment=1)    0    1.22875800    2.26776900   -1.89038500
 C(Fragment=1)    0   -0.81559900    2.83461900   -1.68729600
 H(Fragment=1)    0   -0.73348800    3.87368400   -1.96701900
 C(Fragment=1)    0   -4.31037600    2.76839700    1.21298200
 O(Fragment=1)    0   -5.25497800    2.03738400    1.01582400
 N(Fragment=1)    0   -7.84466900    1.18719900   -0.85629100
 H(Fragment=1)    0   -7.28694800    1.75399400   -0.21559200
 C(Fragment=1)    0   -7.66026100   -0.22751100   -0.47624900
 H(Fragment=1)    0   -8.32228700   -0.83571300   -1.10130300
 C(Fragment=1)    0   -6.19830700   -0.62666600   -0.72138100
 H(Fragment=1)    0   -5.53756600    0.06020800   -0.18204800
 H(Fragment=1)    0   -6.00863600   -0.50104500   -1.79332700
 C(Fragment=1)    0   -5.87853100   -2.05465500   -0.28723400
 H(Fragment=1)    0   -6.61878100   -2.76815900   -0.66567600
 H(Fragment=1)    0   -5.85461900   -2.13511400    0.80270500
 S(Fragment=1)    0   -4.24978400   -2.69438300   -0.81876700
 C(Fragment=1)    0   -4.48041500   -2.84583100   -2.61091200
 H(Fragment=1)    0   -5.39979300   -3.40201200   -2.80712900
 H(Fragment=1)    0   -4.51857200   -1.86948900   -3.09738100
 H(Fragment=1)    0   -3.63228000   -3.41754100   -2.99732000
 C(Fragment=1)    0   -8.09975800   -0.39249500    0.96799100
 O(Fragment=1)    0   -7.32664600   -0.40198600    1.90733000
 Cu(Fragment=1)   0   -2.41329800   -0.91714500   -0.56976700
 C(Fragment=2)    0    4.99571000    3.20713100   -0.91275600
 C(Fragment=2)    0    6.09381600    2.48919000   -0.45656000
 C(Fragment=2)    0    6.16016800    1.10799900   -0.63416300
 C(Fragment=2)    0    5.10754400    0.43493600   -1.25386200
 C(Fragment=2)    0    3.99144800    1.14181800   -1.68661200
 C(Fragment=2)    0    3.93459900    2.52903800   -1.52270000
 H(Fragment=2)    0    4.94830900    4.28494100   -0.78631100
 H(Fragment=2)    0    6.91518900    3.00487700    0.03361100
 H(Fragment=2)    0    5.16934900   -0.63873200   -1.40691600
 H(Fragment=2)    0    3.16397400    0.63215800   -2.17201900
 O(Fragment=2)    0    2.83422300    3.18202000   -1.98284300
 H(Fragment=2)    0    2.87325100    4.16053900   -1.74506200
 N(Fragment=2)    0    7.30884300    0.36993600   -0.18552000
 H(Fragment=2)    0    8.16940300    0.92377100   -0.19018800
 S(Fragment=2)    0    7.18811400   -0.34700500    1.32594300
 C(Fragment=2)    0    6.37046800   -1.87871500    1.00389400
 C(Fragment=2)    0    7.08498100   -2.88583900    0.35833800
 C(Fragment=2)    0    5.05280700   -2.06106600    1.41413600
 C(Fragment=2)    0    6.46151900   -4.10600600    0.13388100
 H(Fragment=2)    0    8.11305600   -2.72428300    0.04867800
 C(Fragment=2)    0    4.44734000   -3.29072400    1.17803500
 H(Fragment=2)    0    4.51836700   -1.26218700    1.91718800
 C(Fragment=2)    0    5.14122100   -4.32781100    0.54388700
 H(Fragment=2)    0    7.00927800   -4.90500500   -0.35681100
 H(Fragment=2)    0    3.42354500   -3.45338300    1.50494000
 O(Fragment=2)    0    8.57259700   -0.61193400    1.72343000
 O(Fragment=2)    0    6.34101500    0.44153500    2.22256100
 C(Fragment=2)    0    4.47751300   -5.65589800    0.30590700
 H(Fragment=2)    0    5.21315900   -6.42122800    0.04634900
 H(Fragment=2)    0    3.93329700   -5.98539200    1.19627900
 H(Fragment=2)    0    3.75733300   -5.58928500   -0.51924500
 H(Fragment=2)   -1   -0.95265700    6.05067400    2.91487600
 H(Fragment=1)   -1   -3.97292100    3.00744000    2.23551200
 H(Fragment=1)   -1   -9.19907400   -0.43672000    1.14828300
 H(Fragment=1)   -1   -8.81688400    1.48863600   -0.73606400
 H(Fragment=1)   -1   -4.55028200   -3.46487500    3.22893700
 H(Fragment=1)   -1   -1.01611500   -1.39660400    4.37026000
 H(Fragment=1)   -1    1.55206400   -4.92056800    1.39791700
 H(Fragment=1)   -1    1.72860900   -4.69994500   -2.75101800

Cu 0
SDD
****
O C N H S 0
6-311+g(d,p)
****

Cu 0
SDD


